2023/05/23
Julia is now 1.9.0
previous version was 1.7.2
2023/11/29
gurobi is now 11.0.0
previous version was 10.0.2
solving instance uflp nlass orlib 64 exp
presolving:
(round 1, fast)       1 del vars, 51 del conss, 0 add conss, 800 chg bounds, 0 chg sides, 0 chg coeffs, 0 upgd conss, 0 impls, 750 clqs
(round 2, fast)       3 del vars, 52 del conss, 0 add conss, 800 chg bounds, 0 chg sides, 0 chg coeffs, 0 upgd conss, 0 impls, 750 clqs
(round 3, exhaustive) 4 del vars, 52 del conss, 0 add conss, 815 chg bounds, 1 chg sides, 0 chg coeffs, 0 upgd conss, 0 impls, 750 clqs
(round 4, fast)       19 del vars, 68 del conss, 0 add conss, 815 chg bounds, 1 chg sides, 0 chg coeffs, 15 upgd conss, 0 impls, 750 clqs
(round 5, fast)       34 del vars, 98 del conss, 0 add conss, 830 chg bounds, 1 chg sides, 0 chg coeffs, 15 upgd conss, 0 impls, 735 clqs
(round 6, fast)       49 del vars, 98 del conss, 0 add conss, 830 chg bounds, 1 chg sides, 0 chg coeffs, 15 upgd conss, 0 impls, 735 clqs
(round 7, exhaustive) 49 del vars, 98 del conss, 0 add conss, 830 chg bounds, 1 chg sides, 0 chg coeffs, 1534 upgd conss, 0 impls, 735 clqs
   (0.6s) probing cycle finished: starting next cycle
   (0.6s) symmetry computation started: requiring (bin +, int -, cont -), (fixed: bin -, int +, cont +)
   (0.6s) no symmetry present
presolving (8 rounds: 8 fast, 3 medium, 3 exhaustive):
 49 deleted vars, 98 deleted constraints, 0 added constraints, 830 tightened bounds, 0 added holes, 1 changed sides, 0 changed coefficients
 1568 implications, 735 cliques
presolved problem has 2367 variables (799 bin, 0 int, 0 impl, 1568 cont) and 2352 constraints
    784 constraints of type <varbound>
    735 constraints of type <setppc>
     49 constraints of type <linear>
    784 constraints of type <nonlinear>
Presolving Time: 0.60

 time | node  | left  |LP iter|LP it/n|mem/heur|mdpt |vars |cons |rows |cuts |sepa|confs|strbr|  dualbound   | primalbound  |  gap   | compl. 
p 0.8s|     1 |     0 |   832 |     - |  clique|   0 |4719 |2352 |7056 |   0 |  0 |   0 |   0 |-2.990724e-03 | 2.496170e+06 |    Inf | unknown
  1.0s|     1 |     0 |  4784 |     - |    64M |   0 |4719 |2352 |7056 |   0 |  0 | 784 |   0 | 1.430661e+06 | 2.496170e+06 |  74.48%| unknown
  1.4s|     1 |     0 |  6129 |     - |    68M |   0 |4719 |2352 |7355 | 299 |  1 | 784 |   0 | 1.741775e+06 | 2.496170e+06 |  43.31%| unknown
  1.5s|     1 |     0 |  6612 |     - |    68M |   0 |4719 |2352 |7513 | 457 |  2 | 784 |   0 | 1.842245e+06 | 2.496170e+06 |  35.50%| unknown
  1.6s|     1 |     0 |  6807 |     - |    69M |   0 |4719 |2352 |7564 | 508 |  3 | 784 |   0 | 1.853979e+06 | 2.496170e+06 |  34.64%| unknown
  1.7s|     1 |     0 |  6991 |     - |    70M |   0 |4719 |2352 |7602 | 546 |  4 | 784 |   0 | 1.865245e+06 | 2.496170e+06 |  33.83%| unknown
  1.9s|     1 |     0 |  7289 |     - |    71M |   0 |4719 |2352 |7644 | 588 |  5 | 784 |   0 | 1.894677e+06 | 2.496170e+06 |  31.75%| unknown
  2.0s|     1 |     0 |  7533 |     - |    72M |   0 |4719 |2352 |7682 | 626 |  6 | 784 |   0 | 1.913677e+06 | 2.496170e+06 |  30.44%| unknown
  2.1s|     1 |     0 |  7693 |     - |    73M |   0 |4719 |2352 |7702 | 646 |  7 | 784 |   0 | 1.935750e+06 | 2.496170e+06 |  28.95%| unknown
  2.2s|     1 |     0 |  7768 |     - |    74M |   0 |4719 |2352 |7719 | 663 |  8 | 784 |   0 | 1.951110e+06 | 2.496170e+06 |  27.94%| unknown
  2.3s|     1 |     0 |  7817 |     - |    75M |   0 |4719 |2352 |7737 | 681 |  9 | 784 |   0 | 1.955107e+06 | 2.496170e+06 |  27.67%| unknown
t 2.3s|     1 |     0 |  7817 |     - |  trysol|   0 |4719 |2352 |7737 | 681 |  9 | 784 |   0 | 1.955107e+06 | 2.169609e+06 |  10.97%| unknown
  2.3s|     1 |     0 |  7834 |     - |    76M |   0 |4719 |2352 |7746 | 690 | 10 | 784 |   0 | 1.955372e+06 | 2.169609e+06 |  10.96%| unknown
  2.3s|     1 |     0 |  7834 |     - |    76M |   0 |4719 |2352 |7746 | 690 | 10 | 784 |   0 | 1.955372e+06 | 2.169609e+06 |  10.96%| unknown
  2.4s|     1 |     0 |  7852 |     - |    77M |   0 |4719 |2352 |7760 | 704 | 11 | 784 |   0 | 1.955489e+06 | 2.169609e+06 |  10.95%| unknown
 time | node  | left  |LP iter|LP it/n|mem/heur|mdpt |vars |cons |rows |cuts |sepa|confs|strbr|  dualbound   | primalbound  |  gap   | compl. 
t 2.4s|     1 |     0 |  7852 |     - |  trysol|   0 |4719 |2352 |7760 | 704 | 11 | 784 |   0 | 1.955489e+06 | 1.969634e+06 |   0.72%| unknown
  2.4s|     1 |     0 |  7856 |     - |    78M |   0 |4719 |2352 |7764 | 708 | 12 | 784 |   0 | 1.955504e+06 | 1.969634e+06 |   0.72%| unknown
t 2.4s|     1 |     0 |  7856 |     - |  trysol|   0 |4719 |2352 |7764 | 708 | 12 | 784 |   0 | 1.955504e+06 | 1.968479e+06 |   0.66%| unknown
  2.4s|     1 |     0 |  7856 |     - |    78M |   0 |4719 |2352 |7764 | 708 | 12 | 784 |   0 | 1.955504e+06 | 1.968479e+06 |   0.66%| unknown
  2.4s|     1 |     0 |  7858 |     - |    79M |   0 |4719 |2352 |7766 | 710 | 13 | 784 |   0 | 1.955510e+06 | 1.968479e+06 |   0.66%| unknown
  2.5s|     1 |     0 |  7859 |     - |    80M |   0 |4719 |2352 |7767 | 711 | 14 | 784 |   0 | 1.955512e+06 | 1.968479e+06 |   0.66%| unknown
 16.6s|     1 |     0 | 78130 |     - |   101M |   0 |4719 |2250 |7767 | 711 | 16 | 784 |   0 | 1.955512e+06 | 1.968479e+06 |   0.66%| unknown
t16.6s|     1 |     0 | 78130 |     - |  trysol|   0 |4719 |2250 |7767 | 711 | 16 | 784 |   0 | 1.955512e+06 | 1.959665e+06 |   0.21%| unknown
 16.6s|     1 |     0 | 78137 |     - |   101M |   0 |4719 |2250 |7767 | 711 | 18 | 784 |   0 | 1.955512e+06 | 1.959665e+06 |   0.21%| unknown
t16.7s|     1 |     0 | 78137 |     - |  trysol|   0 |4719 |2250 |7767 | 711 | 18 | 784 |   0 | 1.955512e+06 | 1.957696e+06 |   0.11%| unknown
 16.7s|     1 |     0 | 78139 |     - |   101M |   0 |4719 |2250 |7769 | 713 | 19 | 784 |   0 | 1.955514e+06 | 1.957696e+06 |   0.11%| unknown
 16.7s|     1 |     0 | 78139 |     - |   101M |   0 |4719 |2250 |7480 | 713 | 19 | 784 |   0 | 1.955514e+06 | 1.957696e+06 |   0.11%| unknown
 17.8s|     1 |     0 | 83594 |     - |   104M |   0 |4719 |2250 |7480 | 713 | 21 | 784 |   0 | 1.955514e+06 | 1.957696e+06 |   0.11%| unknown
 17.8s|     1 |     0 | 83595 |     - |   104M |   0 |4719 |2250 |7481 | 714 | 22 | 784 |   0 | 1.955517e+06 | 1.957696e+06 |   0.11%| unknown
t17.8s|     1 |     0 | 83595 |     - |  trysol|   0 |4719 |2250 |7481 | 714 | 22 | 784 |   0 | 1.955517e+06 | 1.955686e+06 |   0.01%| unknown
 time | node  | left  |LP iter|LP it/n|mem/heur|mdpt |vars |cons |rows |cuts |sepa|confs|strbr|  dualbound   | primalbound  |  gap   | compl. 
 17.9s|     1 |     0 | 83625 |     - |   105M |   0 |4719 |2250 |7481 | 714 | 24 | 784 |   0 | 1.955517e+06 | 1.955686e+06 |   0.01%| unknown
 17.9s|     1 |     0 | 83625 |     - |   105M |   0 |4719 |2250 |7144 | 714 | 24 | 784 |   0 | 1.955517e+06 | 1.955686e+06 |   0.01%| unknown
 17.9s|     1 |     0 | 83625 |     - |   105M |   0 |4719 |2250 |7100 | 714 | 25 | 784 |   0 | 1.955517e+06 | 1.955686e+06 |   0.01%| unknown
 17.9s|     1 |     0 | 83625 |     - |   105M |   0 |4719 |2250 |7100 | 714 | 25 | 784 |   0 | 1.955517e+06 | 1.955686e+06 |   0.01%| unknown
 18.0s|     1 |     0 | 83625 |     - |   105M |   0 |4719 |2196 |7100 | 714 | 27 | 784 |   0 | 1.955517e+06 | 1.955686e+06 |   0.01%| unknown
L18.3s|     1 |     0 | 84497 |     - |    rens|   0 |4719 |2196 |7100 | 714 | 29 | 784 |   0 | 1.955517e+06 | 1.955518e+06 |   0.00%| unknown

SCIP Status        : solving was interrupted [gap limit reached]
Solving Time (sec) : 18.35
Solving Nodes      : 1
Primal Bound       : +1.95551755822403e+06 (8 solutions)
Dual Bound         : +1.95551670902378e+06
Gap                : 0.00 %
reading orlib data file ../../../../../instances/uflp/orlib/cap64.txt
primal_bound = 1.9555175582240291e6, dual_bound = 1.9555167090237804e6, gap = 4.342585650263822e-5, time = 21.52
